NAME : PR151A.90494.tour
COMMENT : Cost = 0_90494
COMMENT : Found by LKH [Keld Helsgaun] Sun Sep 17 16:52:43 2017
TYPE : TOUR
DIMENSION : 151
TOUR_SECTION
1
36
34
2
37
33
32
3
29
38
28
27
5
26
24
39
23
20
19
10
40
61
83
87
104
110
111
82
88
103
102
101
100
113
112
89
81
65
57
43
66
67
68
56
55
44
80
99
98
97
79
90
45
54
69
70
71
46
52
53
72
91
96
114
92
95
94
93
77
51
73
75
74
76
50
49
48
47
78
115
121
128
129
127
126
150
149
151
125
124
123
122
148
147
146
120
131
130
145
144
133
132
119
143
134
135
118
117
136
137
139
138
140
141
142
116
105
106
107
84
85
108
109
86
42
58
59
64
63
62
60
41
18
17
9
8
21
7
11
22
6
12
25
13
4
14
30
31
15
16
35
-1
EOF
